Version identifier: 22.1.0.0 | 2022-03-09 | 1a383f8ce
CPXPARAM_Read_DataCheck                          1
Tried aggregator 3 times.
MIP Presolve eliminated 36670 rows and 4373 columns.
MIP Presolve modified 547 coefficients.
Aggregator did 33140 substitutions.
Reduced MIP has 4656 rows, 34223 columns, and 73131 nonzeros.
Reduced MIP has 34195 binaries, 28 generals, 0 SOSs, and 0 indicators.
Presolve time = 0.35 sec. (346.99 ticks)
Tried aggregator 1 time.
Detecting symmetries...
Reduced MIP has 4656 rows, 34223 columns, and 73131 nonzeros.
Reduced MIP has 34195 binaries, 28 generals, 0 SOSs, and 0 indicators.
Presolve time = 0.06 sec. (54.53 ticks)
Probing fixed 42 vars, tightened 0 bounds.
Probing changed sense of 10 constraints.
Probing time = 0.10 sec. (11.72 ticks)
Clique table members: 69608.
MIP emphasis: balance optimality and feasibility.
MIP search method: dynamic search.
Parallel mode: deterministic, using up to 8 threads.
Root relaxation solution time = 0.47 sec. (255.66 ticks)

        Nodes                                         Cuts/
   Node  Left     Objective  IInf  Best Integer    Best Bound    ItCnt     Gap

      0     0       28.3564  3236                     28.3564     4079         
      0     0       42.0000   603                    Cuts: 54     7929         
      0     0       42.0000   624                    Cuts: 34    10555         
      0     0       42.0000   582                 ZeroHalf: 5    12281         
      0     0       42.0000   545                ZeroHalf: 44    16739         
*     0+    0                           51.0000       42.0000            17.65%
      0     0       42.0000   644       51.0000  ZeroHalf: 41    20269   17.65%
*     0+    0                           48.0000       42.0000            12.50%
Heuristic still looking.
*     0+    0                           47.0000       42.0000            10.64%
      0     2       42.0000   601       47.0000       42.0000    20269   10.64%
Elapsed time = 74.61 sec. (32942.02 ticks, tree = 0.02 MB, solutions = 3)
      1     3       42.0000   477       47.0000       42.0000    27239   10.64%
      2     4       42.0000   299       47.0000       42.0000    30626   10.64%
      3     3       42.0000   267       47.0000       42.0000    25561   10.64%
      4     4       42.0000   388       47.0000       42.0000    30214   10.64%
      5     6       42.0000   327       47.0000       42.0000    39166   10.64%
      6     5       42.0000   335       47.0000       42.0000    35544   10.64%
      7     9       42.0000   373       47.0000       42.0000    48681   10.64%
      8    10       42.0000   452       47.0000       42.0000    55681   10.64%
     10    11       42.0000   481       47.0000       42.0000    60564   10.64%
*    15+    6                           46.0000       42.0000             8.70%
     15     8       42.0000   330       46.0000       42.0000    44299    8.70%
Elapsed time = 94.63 sec. (43561.27 ticks, tree = 0.02 MB, solutions = 4)
*    19+    7                           45.0000       42.0000             6.67%
     22    15       43.2000   958       45.0000       42.0000    79474    6.67%
     33    27       42.0000   624       45.0000       42.0000   127026    6.67%
     45    16       42.0556   648       45.0000       42.0000    81875    6.67%
     63    25       42.0385   778       45.0000       42.0000   140518    6.67%
     89    57       44.0000   385       45.0000       42.0000   225497    6.67%
    103    93       42.0000   472       45.0000       42.0000   443599    6.67%
    122    94       44.0000   396       45.0000       42.0000   412241    6.67%
    144   113       44.0000   240       45.0000       42.0000   517232    6.67%
    170   122        cutoff             45.0000       42.0000   521395    6.67%
    192   150       44.0000   234       45.0000       42.0000   724735    6.67%
Elapsed time = 130.46 sec. (53785.65 ticks, tree = 3.17 MB, solutions = 6)
    212   165       42.0556   624       45.0000       42.0000   782745    6.67%
    226   167       42.0227   584       45.0000       42.0000   793984    6.67%
    232   168       42.0000   488       45.0000       42.0000   796355    6.67%
    243   184       42.0000   458       45.0000       42.0000   832792    6.67%
    253   197       42.0000   476       45.0000       42.0000   851005    6.67%
    265   210       42.2727   525       45.0000       42.0000   869981    6.67%
    271   213       42.0169   669       45.0000       42.0000   879764    6.67%
    284   232       42.6176   560       45.0000       42.0000   898658    6.67%
    297   254       42.6926   544       45.0000       42.0000   940390    6.67%
    315   231       42.0878   809       45.0000       42.0000   906634    6.67%
Elapsed time = 168.51 sec. (64130.32 ticks, tree = 4.85 MB, solutions = 6)
    323   260       42.1250   349       45.0000       42.0000   947086    6.67%
    332   240       42.0037   605       45.0000       42.0000   923351    6.67%
    340   289       42.0037   555       45.0000       42.0000   983004    6.67%
    351   292       42.0023   656       45.0000       42.0000   987322    6.67%
    359   263       42.0417   560       45.0000       42.0000   952886    6.67%
    369   306       42.0667   608       45.0000       42.0000  1005704    6.67%
    379   301       42.1051   976       45.0000       42.0000   997105    6.67%
    391   320       42.0167   515       45.0000       42.0000  1024122    6.67%
    402   333       42.1484   379       45.0000       42.0000  1045114    6.67%
    410   334       42.0878  1026       45.0000       42.0000  1053276    6.67%
Elapsed time = 202.70 sec. (74595.28 ticks, tree = 8.78 MB, solutions = 6)
    422   351       42.0167   485       45.0000       42.0000  1075978    6.67%
    437   353       42.1522   794       45.0000       42.0000  1078560    6.67%
    446   362       42.0023   701       45.0000       42.0000  1098460    6.67%
    456   364       42.0077   582       45.0000       42.0000  1100215    6.67%
    471   377       42.0878   853       45.0000       42.0000  1118363    6.67%
    485   406       42.0000   238       45.0000       42.0000  1161734    6.67%
    496   408       42.0000   231       45.0000       42.0000  1163640    6.67%
    511   431       42.0833   363       45.0000       42.0000  1193992    6.67%
    524   425       42.0878   814       45.0000       42.0000  1184026    6.67%
    532   454       42.0122   641       45.0000       42.0000  1222802    6.67%
Elapsed time = 236.44 sec. (84594.45 ticks, tree = 12.51 MB, solutions = 6)
    544   461       42.1667   224       45.0000       42.0000  1232360    6.67%
*   548+  387                           43.0000       42.0000             2.33%
    559   199        cutoff             43.0000       42.0000  1260928    2.33%
    577   479       42.3929   205       43.0000       42.0000  1240356    2.33%
    593   192        cutoff             43.0000       42.0000  1277034    2.33%
    609   176       42.0000   275       43.0000       42.0000  1288951    2.33%
    634   171       42.0000   323       43.0000       42.0000  1298460    2.33%
    656   172       42.0000   341       43.0000       42.0000  1302559    2.33%
    681   155       42.0000   428       43.0000       42.0000  1343024    2.33%
    713   180       42.0000   214       43.0000       42.0000  1310250    2.33%
    749   167       42.0000   323       43.0000       42.0000  1311661    2.33%
Elapsed time = 271.96 sec. (94391.49 ticks, tree = 2.95 MB, solutions = 7)
    780   155       42.0000   261       43.0000       42.0000  1323975    2.33%
    830   218       42.0000   269       43.0000       42.0000  1413036    2.33%
    869   172       42.0000   189       43.0000       42.0000  1369548    2.33%
    922   224        cutoff             43.0000       42.0000  1379768    2.33%
    959   223       42.0000   323       43.0000       42.0000  1471309    2.33%
    994   222       42.0000    98       43.0000       42.0000  1425186    2.33%
   1028   240       42.0000   117       43.0000       42.0000  1493017    2.33%
   1064   316       42.0000   271       43.0000       42.0000  1542025    2.33%
   1119   365       42.0000    85       43.0000       42.0000  1584840    2.33%
*  1151   317      integral     0       42.0000       42.0000  1574952    0.00%
   1159   366        cutoff             42.0000       42.0000  1587904    0.00%
Elapsed time = 307.11 sec. (104130.55 ticks, tree = 10.37 MB, solutions = 8)
   1183   394       42.0000   278       42.0000       42.0000  1603092    0.00%
   1212   349       42.0000   164       42.0000       42.0000  1554748    0.00%
   1231   405       42.0000    46       42.0000       42.0000  1626548    0.00%
   1245   406       42.0000   179       42.0000       42.0000  1613289    0.00%

Cover cuts applied:  1
Zero-half cuts applied:  96
Lift and project cuts applied:  1
Gomory fractional cuts applied:  14

Root node processing (before b&c):
  Real time             =   74.52 sec. (32909.13 ticks)
Parallel b&c, 8 threads:
  Real time             =  238.04 sec. (75799.55 ticks)
  Sync time (average)   =   47.41 sec.
  Wait time (average)   =    0.00 sec.
                          ------------
Total (root+branch&cut) =  312.56 sec. (108708.69 ticks)
